(set-info :category "industrial")
(set-info :status sat)
(declare-fun x00 () (_ BitVec 8))
(declare-fun x01 () (_ BitVec 8))
(declare-fun x04 () (_ BitVec 8))
(declare-fun x05 () (_ BitVec 8))
(declare-fun x07 () (_ BitVec 8))
(declare-fun x08 () (_ BitVec 8))
(declare-fun x13 () (_ BitVec 8))
(declare-fun x15 () (_ BitVec 8))
(declare-fun x16 () (_ BitVec 8))
(declare-fun x17 () (_ BitVec 8))
(declare-fun x18 () (_ BitVec 8))
(declare-fun x20 () (_ BitVec 8))
(declare-fun x21 () (_ BitVec 8))
(declare-fun x24 () (_ BitVec 8))
(declare-fun x26 () (_ BitVec 8))
(declare-fun x32 () (_ BitVec 8))
(declare-fun x34 () (_ BitVec 8))
(declare-fun x35 () (_ BitVec 8))
(declare-fun x37 () (_ BitVec 8))
(declare-fun x40 () (_ BitVec 8))
(declare-fun x42 () (_ BitVec 8))
(declare-fun x43 () (_ BitVec 8))
(declare-fun x44 () (_ BitVec 8))
(declare-fun x46 () (_ BitVec 8))
(declare-fun x47 () (_ BitVec 8))
(declare-fun x48 () (_ BitVec 8))
(declare-fun x50 () (_ BitVec 8))
(declare-fun x52 () (_ BitVec 8))
(declare-fun x54 () (_ BitVec 8))
(declare-fun x57 () (_ BitVec 8))
(declare-fun x60 () (_ BitVec 8))
(declare-fun x63 () (_ BitVec 8))
(declare-fun x64 () (_ BitVec 8))
(declare-fun x65 () (_ BitVec 8))
(declare-fun x66 () (_ BitVec 8))
(declare-fun x67 () (_ BitVec 8))
(declare-fun x70 () (_ BitVec 8))
(declare-fun x71 () (_ BitVec 8))
(declare-fun x72 () (_ BitVec 8))
(declare-fun x73 () (_ BitVec 8))
(declare-fun x76 () (_ BitVec 8))
(declare-fun x80 () (_ BitVec 8))
(declare-fun x81 () (_ BitVec 8))
(declare-fun x82 () (_ BitVec 8))
(declare-fun x83 () (_ BitVec 8))
(declare-fun x85 () (_ BitVec 8))
(declare-fun x87 () (_ BitVec 8))
(assert (bvult x00 (_ bv9 8)))
(assert (bvult x01 (_ bv9 8)))
(assert (bvult x04 (_ bv9 8)))
(assert (bvult x05 (_ bv9 8)))
(assert (bvult x07 (_ bv9 8)))
(assert (bvult x08 (_ bv9 8)))
(assert (bvult x13 (_ bv9 8)))
(assert (bvult x15 (_ bv9 8)))
(assert (bvult x16 (_ bv9 8)))
(assert (bvult x17 (_ bv9 8)))
(assert (bvult x18 (_ bv9 8)))
(assert (bvult x20 (_ bv9 8)))
(assert (bvult x21 (_ bv9 8)))
(assert (bvult x24 (_ bv9 8)))
(assert (bvult x26 (_ bv9 8)))
(assert (bvult x32 (_ bv9 8)))
(assert (bvult x34 (_ bv9 8)))
(assert (bvult x35 (_ bv9 8)))
(assert (bvult x37 (_ bv9 8)))
(assert (bvult x40 (_ bv9 8)))
(assert (bvult x42 (_ bv9 8)))
(assert (bvult x43 (_ bv9 8)))
(assert (bvult x44 (_ bv9 8)))
(assert (bvult x46 (_ bv9 8)))
(assert (bvult x47 (_ bv9 8)))
(assert (bvult x48 (_ bv9 8)))
(assert (bvult x50 (_ bv9 8)))
(assert (bvult x52 (_ bv9 8)))
(assert (bvult x54 (_ bv9 8)))
(assert (bvult x57 (_ bv9 8)))
(assert (bvult x60 (_ bv9 8)))
(assert (bvult x63 (_ bv9 8)))
(assert (bvult x64 (_ bv9 8)))
(assert (bvult x65 (_ bv9 8)))
(assert (bvult x66 (_ bv9 8)))
(assert (bvult x67 (_ bv9 8)))
(assert (bvult x70 (_ bv9 8)))
(assert (bvult x71 (_ bv9 8)))
(assert (bvult x72 (_ bv9 8)))
(assert (bvult x73 (_ bv9 8)))
(assert (bvult x76 (_ bv9 8)))
(assert (bvult x80 (_ bv9 8)))
(assert (bvult x81 (_ bv9 8)))
(assert (bvult x82 (_ bv9 8)))
(assert (bvult x83 (_ bv9 8)))
(assert (bvult x85 (_ bv9 8)))
(assert (bvult x87 (_ bv9 8)))
(assert (not (= x00 x01)))
(assert (not (= x00 (_ bv4 8))))
(assert (not (= x00 (_ bv1 8))))
(assert (not (= x00 x04)))
(assert (not (= x00 x05)))
(assert (not (= x00 (_ bv5 8))))
(assert (not (= x00 x07)))
(assert (not (= x00 x08)))
(assert (not (= x01 (_ bv4 8))))
(assert (not (= x01 (_ bv1 8))))
(assert (not (= x01 x04)))
(assert (not (= x01 x05)))
(assert (not (= x01 (_ bv5 8))))
(assert (not (= x01 x07)))
(assert (not (= x01 x08)))
(assert (not (= (_ bv4 8) (_ bv1 8))))
(assert (not (= (_ bv4 8) x04)))
(assert (not (= (_ bv4 8) x05)))
(assert (not (= (_ bv4 8) (_ bv5 8))))
(assert (not (= (_ bv4 8) x07)))
(assert (not (= (_ bv4 8) x08)))
(assert (not (= (_ bv1 8) x04)))
(assert (not (= (_ bv1 8) x05)))
(assert (not (= (_ bv1 8) (_ bv5 8))))
(assert (not (= (_ bv1 8) x07)))
(assert (not (= (_ bv1 8) x08)))
(assert (not (= x04 x05)))
(assert (not (= x04 (_ bv5 8))))
(assert (not (= x04 x07)))
(assert (not (= x04 x08)))
(assert (not (= x05 (_ bv5 8))))
(assert (not (= x05 x07)))
(assert (not (= x05 x08)))
(assert (not (= (_ bv5 8) x07)))
(assert (not (= (_ bv5 8) x08)))
(assert (not (= x07 x08)))
(assert (not (= (_ bv5 8) (_ bv2 8))))
(assert (not (= (_ bv5 8) (_ bv6 8))))
(assert (not (= (_ bv5 8) x13)))
(assert (not (= (_ bv5 8) (_ bv8 8))))
(assert (not (= (_ bv5 8) x15)))
(assert (not (= (_ bv5 8) x16)))
(assert (not (= (_ bv5 8) x17)))
(assert (not (= (_ bv5 8) x18)))
(assert (not (= (_ bv2 8) (_ bv6 8))))
(assert (not (= (_ bv2 8) x13)))
(assert (not (= (_ bv2 8) (_ bv8 8))))
(assert (not (= (_ bv2 8) x15)))
(assert (not (= (_ bv2 8) x16)))
(assert (not (= (_ bv2 8) x17)))
(assert (not (= (_ bv2 8) x18)))
(assert (not (= (_ bv6 8) x13)))
(assert (not (= (_ bv6 8) (_ bv8 8))))
(assert (not (= (_ bv6 8) x15)))
(assert (not (= (_ bv6 8) x16)))
(assert (not (= (_ bv6 8) x17)))
(assert (not (= (_ bv6 8) x18)))
(assert (not (= x13 (_ bv8 8))))
(assert (not (= x13 x15)))
(assert (not (= x13 x16)))
(assert (not (= x13 x17)))
(assert (not (= x13 x18)))
(assert (not (= (_ bv8 8) x15)))
(assert (not (= (_ bv8 8) x16)))
(assert (not (= (_ bv8 8) x17)))
(assert (not (= (_ bv8 8) x18)))
(assert (not (= x15 x16)))
(assert (not (= x15 x17)))
(assert (not (= x15 x18)))
(assert (not (= x16 x17)))
(assert (not (= x16 x18)))
(assert (not (= x17 x18)))
(assert (not (= x20 x21)))
(assert (not (= x20 (_ bv1 8))))
(assert (not (= x20 (_ bv2 8))))
(assert (not (= x20 x24)))
(assert (not (= x20 (_ bv4 8))))
(assert (not (= x20 x26)))
(assert (not (= x20 (_ bv7 8))))
(assert (not (= x20 (_ bv3 8))))
(assert (not (= x21 (_ bv1 8))))
(assert (not (= x21 (_ bv2 8))))
(assert (not (= x21 x24)))
(assert (not (= x21 (_ bv4 8))))
(assert (not (= x21 x26)))
(assert (not (= x21 (_ bv7 8))))
(assert (not (= x21 (_ bv3 8))))
(assert (not (= (_ bv1 8) (_ bv2 8))))
(assert (not (= (_ bv1 8) x24)))
(assert (not (= (_ bv1 8) (_ bv4 8))))
(assert (not (= (_ bv1 8) x26)))
(assert (not (= (_ bv1 8) (_ bv7 8))))
(assert (not (= (_ bv1 8) (_ bv3 8))))
(assert (not (= (_ bv2 8) x24)))
(assert (not (= (_ bv2 8) (_ bv4 8))))
(assert (not (= (_ bv2 8) x26)))
(assert (not (= (_ bv2 8) (_ bv7 8))))
(assert (not (= (_ bv2 8) (_ bv3 8))))
(assert (not (= x24 (_ bv4 8))))
(assert (not (= x24 x26)))
(assert (not (= x24 (_ bv7 8))))
(assert (not (= x24 (_ bv3 8))))
(assert (not (= (_ bv4 8) x26)))
(assert (not (= (_ bv4 8) (_ bv7 8))))
(assert (not (= (_ bv4 8) (_ bv3 8))))
(assert (not (= x26 (_ bv7 8))))
(assert (not (= x26 (_ bv3 8))))
(assert (not (= (_ bv7 8) (_ bv3 8))))
(assert (not (= (_ bv2 8) (_ bv1 8))))
(assert (not (= (_ bv2 8) x32)))
(assert (not (= (_ bv2 8) (_ bv4 8))))
(assert (not (= (_ bv2 8) x34)))
(assert (not (= (_ bv2 8) x35)))
(assert (not (= (_ bv2 8) (_ bv9 8))))
(assert (not (= (_ bv2 8) x37)))
(assert (not (= (_ bv2 8) (_ bv5 8))))
(assert (not (= (_ bv1 8) x32)))
(assert (not (= (_ bv1 8) (_ bv4 8))))
(assert (not (= (_ bv1 8) x34)))
(assert (not (= (_ bv1 8) x35)))
(assert (not (= (_ bv1 8) (_ bv9 8))))
(assert (not (= (_ bv1 8) x37)))
(assert (not (= (_ bv1 8) (_ bv5 8))))
(assert (not (= x32 (_ bv4 8))))
(assert (not (= x32 x34)))
(assert (not (= x32 x35)))
(assert (not (= x32 (_ bv9 8))))
(assert (not (= x32 x37)))
(assert (not (= x32 (_ bv5 8))))
(assert (not (= (_ bv4 8) x34)))
(assert (not (= (_ bv4 8) x35)))
(assert (not (= (_ bv4 8) (_ bv9 8))))
(assert (not (= (_ bv4 8) x37)))
(assert (not (= (_ bv4 8) (_ bv5 8))))
(assert (not (= x34 x35)))
(assert (not (= x34 (_ bv9 8))))
(assert (not (= x34 x37)))
(assert (not (= x34 (_ bv5 8))))
(assert (not (= x35 (_ bv9 8))))
(assert (not (= x35 x37)))
(assert (not (= x35 (_ bv5 8))))
(assert (not (= (_ bv9 8) x37)))
(assert (not (= (_ bv9 8) (_ bv5 8))))
(assert (not (= x37 (_ bv5 8))))
(assert (not (= x40 (_ bv4 8))))
(assert (not (= x40 x42)))
(assert (not (= x40 x43)))
(assert (not (= x40 x44)))
(assert (not (= x40 (_ bv8 8))))
(assert (not (= x40 x46)))
(assert (not (= x40 x47)))
(assert (not (= x40 x48)))
(assert (not (= (_ bv4 8) x42)))
(assert (not (= (_ bv4 8) x43)))
(assert (not (= (_ bv4 8) x44)))
(assert (not (= (_ bv4 8) (_ bv8 8))))
(assert (not (= (_ bv4 8) x46)))
(assert (not (= (_ bv4 8) x47)))
(assert (not (= (_ bv4 8) x48)))
(assert (not (= x42 x43)))
(assert (not (= x42 x44)))
(assert (not (= x42 (_ bv8 8))))
(assert (not (= x42 x46)))
(assert (not (= x42 x47)))
(assert (not (= x42 x48)))
(assert (not (= x43 x44)))
(assert (not (= x43 (_ bv8 8))))
(assert (not (= x43 x46)))
(assert (not (= x43 x47)))
(assert (not (= x43 x48)))
(assert (not (= x44 (_ bv8 8))))
(assert (not (= x44 x46)))
(assert (not (= x44 x47)))
(assert (not (= x44 x48)))
(assert (not (= (_ bv8 8) x46)))
(assert (not (= (_ bv8 8) x47)))
(assert (not (= (_ bv8 8) x48)))
(assert (not (= x46 x47)))
(assert (not (= x46 x48)))
(assert (not (= x47 x48)))
(assert (not (= x50 (_ bv5 8))))
(assert (not (= x50 x52)))
(assert (not (= x50 (_ bv9 8))))
(assert (not (= x50 x54)))
(assert (not (= x50 (_ bv6 8))))
(assert (not (= x50 (_ bv8 8))))
(assert (not (= x50 x57)))
(assert (not (= x50 (_ bv2 8))))
(assert (not (= (_ bv5 8) x52)))
(assert (not (= (_ bv5 8) (_ bv9 8))))
(assert (not (= (_ bv5 8) x54)))
(assert (not (= (_ bv5 8) (_ bv6 8))))
(assert (not (= (_ bv5 8) (_ bv8 8))))
(assert (not (= (_ bv5 8) x57)))
(assert (not (= (_ bv5 8) (_ bv2 8))))
(assert (not (= x52 (_ bv9 8))))
(assert (not (= x52 x54)))
(assert (not (= x52 (_ bv6 8))))
(assert (not (= x52 (_ bv8 8))))
(assert (not (= x52 x57)))
(assert (not (= x52 (_ bv2 8))))
(assert (not (= (_ bv9 8) x54)))
(assert (not (= (_ bv9 8) (_ bv6 8))))
(assert (not (= (_ bv9 8) (_ bv8 8))))
(assert (not (= (_ bv9 8) x57)))
(assert (not (= (_ bv9 8) (_ bv2 8))))
(assert (not (= x54 (_ bv6 8))))
(assert (not (= x54 (_ bv8 8))))
(assert (not (= x54 x57)))
(assert (not (= x54 (_ bv2 8))))
(assert (not (= (_ bv6 8) (_ bv8 8))))
(assert (not (= (_ bv6 8) x57)))
(assert (not (= (_ bv6 8) (_ bv2 8))))
(assert (not (= (_ bv8 8) x57)))
(assert (not (= (_ bv8 8) (_ bv2 8))))
(assert (not (= x57 (_ bv2 8))))
(assert (not (= x60 (_ bv8 8))))
(assert (not (= x60 (_ bv3 8))))
(assert (not (= x60 x63)))
(assert (not (= x60 x64)))
(assert (not (= x60 x65)))
(assert (not (= x60 x66)))
(assert (not (= x60 x67)))
(assert (not (= x60 (_ bv1 8))))
(assert (not (= (_ bv8 8) (_ bv3 8))))
(assert (not (= (_ bv8 8) x63)))
(assert (not (= (_ bv8 8) x64)))
(assert (not (= (_ bv8 8) x65)))
(assert (not (= (_ bv8 8) x66)))
(assert (not (= (_ bv8 8) x67)))
(assert (not (= (_ bv8 8) (_ bv1 8))))
(assert (not (= (_ bv3 8) x63)))
(assert (not (= (_ bv3 8) x64)))
(assert (not (= (_ bv3 8) x65)))
(assert (not (= (_ bv3 8) x66)))
(assert (not (= (_ bv3 8) x67)))
(assert (not (= (_ bv3 8) (_ bv1 8))))
(assert (not (= x63 x64)))
(assert (not (= x63 x65)))
(assert (not (= x63 x66)))
(assert (not (= x63 x67)))
(assert (not (= x63 (_ bv1 8))))
(assert (not (= x64 x65)))
(assert (not (= x64 x66)))
(assert (not (= x64 x67)))
(assert (not (= x64 (_ bv1 8))))
(assert (not (= x65 x66)))
(assert (not (= x65 x67)))
(assert (not (= x65 (_ bv1 8))))
(assert (not (= x66 x67)))
(assert (not (= x66 (_ bv1 8))))
(assert (not (= x67 (_ bv1 8))))
(assert (not (= x70 x71)))
(assert (not (= x70 x72)))
(assert (not (= x70 x73)))
(assert (not (= x70 (_ bv7 8))))
(assert (not (= x70 (_ bv5 8))))
(assert (not (= x70 x76)))
(assert (not (= x70 (_ bv3 8))))
(assert (not (= x70 (_ bv9 8))))
(assert (not (= x71 x72)))
(assert (not (= x71 x73)))
(assert (not (= x71 (_ bv7 8))))
(assert (not (= x71 (_ bv5 8))))
(assert (not (= x71 x76)))
(assert (not (= x71 (_ bv3 8))))
(assert (not (= x71 (_ bv9 8))))
(assert (not (= x72 x73)))
(assert (not (= x72 (_ bv7 8))))
(assert (not (= x72 (_ bv5 8))))
(assert (not (= x72 x76)))
(assert (not (= x72 (_ bv3 8))))
(assert (not (= x72 (_ bv9 8))))
(assert (not (= x73 (_ bv7 8))))
(assert (not (= x73 (_ bv5 8))))
(assert (not (= x73 x76)))
(assert (not (= x73 (_ bv3 8))))
(assert (not (= x73 (_ bv9 8))))
(assert (not (= (_ bv7 8) (_ bv5 8))))
(assert (not (= (_ bv7 8) x76)))
(assert (not (= (_ bv7 8) (_ bv3 8))))
(assert (not (= (_ bv7 8) (_ bv9 8))))
(assert (not (= (_ bv5 8) x76)))
(assert (not (= (_ bv5 8) (_ bv3 8))))
(assert (not (= (_ bv5 8) (_ bv9 8))))
(assert (not (= x76 (_ bv3 8))))
(assert (not (= x76 (_ bv9 8))))
(assert (not (= (_ bv3 8) (_ bv9 8))))
(assert (not (= x80 x81)))
(assert (not (= x80 x82)))
(assert (not (= x80 x83)))
(assert (not (= x80 (_ bv9 8))))
(assert (not (= x80 x85)))
(assert (not (= x80 (_ bv2 8))))
(assert (not (= x80 x87)))
(assert (not (= x80 (_ bv6 8))))
(assert (not (= x81 x82)))
(assert (not (= x81 x83)))
(assert (not (= x81 (_ bv9 8))))
(assert (not (= x81 x85)))
(assert (not (= x81 (_ bv2 8))))
(assert (not (= x81 x87)))
(assert (not (= x81 (_ bv6 8))))
(assert (not (= x82 x83)))
(assert (not (= x82 (_ bv9 8))))
(assert (not (= x82 x85)))
(assert (not (= x82 (_ bv2 8))))
(assert (not (= x82 x87)))
(assert (not (= x82 (_ bv6 8))))
(assert (not (= x83 (_ bv9 8))))
(assert (not (= x83 x85)))
(assert (not (= x83 (_ bv2 8))))
(assert (not (= x83 x87)))
(assert (not (= x83 (_ bv6 8))))
(assert (not (= (_ bv9 8) x85)))
(assert (not (= (_ bv9 8) (_ bv2 8))))
(assert (not (= (_ bv9 8) x87)))
(assert (not (= (_ bv9 8) (_ bv6 8))))
(assert (not (= x85 (_ bv2 8))))
(assert (not (= x85 x87)))
(assert (not (= x85 (_ bv6 8))))
(assert (not (= (_ bv2 8) x87)))
(assert (not (= (_ bv2 8) (_ bv6 8))))
(assert (not (= x87 (_ bv6 8))))
(assert (not (= x00 (_ bv5 8))))
(assert (not (= x00 x20)))
(assert (not (= x00 (_ bv2 8))))
(assert (not (= x00 x40)))
(assert (not (= x00 x50)))
(assert (not (= x00 x60)))
(assert (not (= x00 x70)))
(assert (not (= x00 x80)))
(assert (not (= (_ bv5 8) x20)))
(assert (not (= (_ bv5 8) (_ bv2 8))))
(assert (not (= (_ bv5 8) x40)))
(assert (not (= (_ bv5 8) x50)))
(assert (not (= (_ bv5 8) x60)))
(assert (not (= (_ bv5 8) x70)))
(assert (not (= (_ bv5 8) x80)))
(assert (not (= x20 (_ bv2 8))))
(assert (not (= x20 x40)))
(assert (not (= x20 x50)))
(assert (not (= x20 x60)))
(assert (not (= x20 x70)))
(assert (not (= x20 x80)))
(assert (not (= (_ bv2 8) x40)))
(assert (not (= (_ bv2 8) x50)))
(assert (not (= (_ bv2 8) x60)))
(assert (not (= (_ bv2 8) x70)))
(assert (not (= (_ bv2 8) x80)))
(assert (not (= x40 x50)))
(assert (not (= x40 x60)))
(assert (not (= x40 x70)))
(assert (not (= x40 x80)))
(assert (not (= x50 x60)))
(assert (not (= x50 x70)))
(assert (not (= x50 x80)))
(assert (not (= x60 x70)))
(assert (not (= x60 x80)))
(assert (not (= x70 x80)))
(assert (not (= x01 (_ bv2 8))))
(assert (not (= x01 x21)))
(assert (not (= x01 (_ bv1 8))))
(assert (not (= x01 (_ bv4 8))))
(assert (not (= x01 (_ bv5 8))))
(assert (not (= x01 (_ bv8 8))))
(assert (not (= x01 x71)))
(assert (not (= x01 x81)))
(assert (not (= (_ bv2 8) x21)))
(assert (not (= (_ bv2 8) (_ bv1 8))))
(assert (not (= (_ bv2 8) (_ bv4 8))))
(assert (not (= (_ bv2 8) (_ bv5 8))))
(assert (not (= (_ bv2 8) (_ bv8 8))))
(assert (not (= (_ bv2 8) x71)))
(assert (not (= (_ bv2 8) x81)))
(assert (not (= x21 (_ bv1 8))))
(assert (not (= x21 (_ bv4 8))))
(assert (not (= x21 (_ bv5 8))))
(assert (not (= x21 (_ bv8 8))))
(assert (not (= x21 x71)))
(assert (not (= x21 x81)))
(assert (not (= (_ bv1 8) (_ bv4 8))))
(assert (not (= (_ bv1 8) (_ bv5 8))))
(assert (not (= (_ bv1 8) (_ bv8 8))))
(assert (not (= (_ bv1 8) x71)))
(assert (not (= (_ bv1 8) x81)))
(assert (not (= (_ bv4 8) (_ bv5 8))))
(assert (not (= (_ bv4 8) (_ bv8 8))))
(assert (not (= (_ bv4 8) x71)))
(assert (not (= (_ bv4 8) x81)))
(assert (not (= (_ bv5 8) (_ bv8 8))))
(assert (not (= (_ bv5 8) x71)))
(assert (not (= (_ bv5 8) x81)))
(assert (not (= (_ bv8 8) x71)))
(assert (not (= (_ bv8 8) x81)))
(assert (not (= x71 x81)))
(assert (not (= (_ bv4 8) (_ bv6 8))))
(assert (not (= (_ bv4 8) (_ bv1 8))))
(assert (not (= (_ bv4 8) x32)))
(assert (not (= (_ bv4 8) x42)))
(assert (not (= (_ bv4 8) x52)))
(assert (not (= (_ bv4 8) (_ bv3 8))))
(assert (not (= (_ bv4 8) x72)))
(assert (not (= (_ bv4 8) x82)))
(assert (not (= (_ bv6 8) (_ bv1 8))))
(assert (not (= (_ bv6 8) x32)))
(assert (not (= (_ bv6 8) x42)))
(assert (not (= (_ bv6 8) x52)))
(assert (not (= (_ bv6 8) (_ bv3 8))))
(assert (not (= (_ bv6 8) x72)))
(assert (not (= (_ bv6 8) x82)))
(assert (not (= (_ bv1 8) x32)))
(assert (not (= (_ bv1 8) x42)))
(assert (not (= (_ bv1 8) x52)))
(assert (not (= (_ bv1 8) (_ bv3 8))))
(assert (not (= (_ bv1 8) x72)))
(assert (not (= (_ bv1 8) x82)))
(assert (not (= x32 x42)))
(assert (not (= x32 x52)))
(assert (not (= x32 (_ bv3 8))))
(assert (not (= x32 x72)))
(assert (not (= x32 x82)))
(assert (not (= x42 x52)))
(assert (not (= x42 (_ bv3 8))))
(assert (not (= x42 x72)))
(assert (not (= x42 x82)))
(assert (not (= x52 (_ bv3 8))))
(assert (not (= x52 x72)))
(assert (not (= x52 x82)))
(assert (not (= (_ bv3 8) x72)))
(assert (not (= (_ bv3 8) x82)))
(assert (not (= x72 x82)))
(assert (not (= (_ bv1 8) x13)))
(assert (not (= (_ bv1 8) (_ bv2 8))))
(assert (not (= (_ bv1 8) (_ bv4 8))))
(assert (not (= (_ bv1 8) x43)))
(assert (not (= (_ bv1 8) (_ bv9 8))))
(assert (not (= (_ bv1 8) x63)))
(assert (not (= (_ bv1 8) x73)))
(assert (not (= (_ bv1 8) x83)))
(assert (not (= x13 (_ bv2 8))))
(assert (not (= x13 (_ bv4 8))))
(assert (not (= x13 x43)))
(assert (not (= x13 (_ bv9 8))))
(assert (not (= x13 x63)))
(assert (not (= x13 x73)))
(assert (not (= x13 x83)))
(assert (not (= (_ bv2 8) (_ bv4 8))))
(assert (not (= (_ bv2 8) x43)))
(assert (not (= (_ bv2 8) (_ bv9 8))))
(assert (not (= (_ bv2 8) x63)))
(assert (not (= (_ bv2 8) x73)))
(assert (not (= (_ bv2 8) x83)))
(assert (not (= (_ bv4 8) x43)))
(assert (not (= (_ bv4 8) (_ bv9 8))))
(assert (not (= (_ bv4 8) x63)))
(assert (not (= (_ bv4 8) x73)))
(assert (not (= (_ bv4 8) x83)))
(assert (not (= x43 (_ bv9 8))))
(assert (not (= x43 x63)))
(assert (not (= x43 x73)))
(assert (not (= x43 x83)))
(assert (not (= (_ bv9 8) x63)))
(assert (not (= (_ bv9 8) x73)))
(assert (not (= (_ bv9 8) x83)))
(assert (not (= x63 x73)))
(assert (not (= x63 x83)))
(assert (not (= x73 x83)))
(assert (not (= x04 (_ bv8 8))))
(assert (not (= x04 x24)))
(assert (not (= x04 x34)))
(assert (not (= x04 x44)))
(assert (not (= x04 x54)))
(assert (not (= x04 x64)))
(assert (not (= x04 (_ bv7 8))))
(assert (not (= x04 (_ bv9 8))))
(assert (not (= (_ bv8 8) x24)))
(assert (not (= (_ bv8 8) x34)))
(assert (not (= (_ bv8 8) x44)))
(assert (not (= (_ bv8 8) x54)))
(assert (not (= (_ bv8 8) x64)))
(assert (not (= (_ bv8 8) (_ bv7 8))))
(assert (not (= (_ bv8 8) (_ bv9 8))))
(assert (not (= x24 x34)))
(assert (not (= x24 x44)))
(assert (not (= x24 x54)))
(assert (not (= x24 x64)))
(assert (not (= x24 (_ bv7 8))))
(assert (not (= x24 (_ bv9 8))))
(assert (not (= x34 x44)))
(assert (not (= x34 x54)))
(assert (not (= x34 x64)))
(assert (not (= x34 (_ bv7 8))))
(assert (not (= x34 (_ bv9 8))))
(assert (not (= x44 x54)))
(assert (not (= x44 x64)))
(assert (not (= x44 (_ bv7 8))))
(assert (not (= x44 (_ bv9 8))))
(assert (not (= x54 x64)))
(assert (not (= x54 (_ bv7 8))))
(assert (not (= x54 (_ bv9 8))))
(assert (not (= x64 (_ bv7 8))))
(assert (not (= x64 (_ bv9 8))))
(assert (not (= (_ bv7 8) (_ bv9 8))))
(assert (not (= x05 x15)))
(assert (not (= x05 (_ bv4 8))))
(assert (not (= x05 x35)))
(assert (not (= x05 (_ bv8 8))))
(assert (not (= x05 (_ bv6 8))))
(assert (not (= x05 x65)))
(assert (not (= x05 (_ bv5 8))))
(assert (not (= x05 x85)))
(assert (not (= x15 (_ bv4 8))))
(assert (not (= x15 x35)))
(assert (not (= x15 (_ bv8 8))))
(assert (not (= x15 (_ bv6 8))))
(assert (not (= x15 x65)))
(assert (not (= x15 (_ bv5 8))))
(assert (not (= x15 x85)))
(assert (not (= (_ bv4 8) x35)))
(assert (not (= (_ bv4 8) (_ bv8 8))))
(assert (not (= (_ bv4 8) (_ bv6 8))))
(assert (not (= (_ bv4 8) x65)))
(assert (not (= (_ bv4 8) (_ bv5 8))))
(assert (not (= (_ bv4 8) x85)))
(assert (not (= x35 (_ bv8 8))))
(assert (not (= x35 (_ bv6 8))))
(assert (not (= x35 x65)))
(assert (not (= x35 (_ bv5 8))))
(assert (not (= x35 x85)))
(assert (not (= (_ bv8 8) (_ bv6 8))))
(assert (not (= (_ bv8 8) x65)))
(assert (not (= (_ bv8 8) (_ bv5 8))))
(assert (not (= (_ bv8 8) x85)))
(assert (not (= (_ bv6 8) x65)))
(assert (not (= (_ bv6 8) (_ bv5 8))))
(assert (not (= (_ bv6 8) x85)))
(assert (not (= x65 (_ bv5 8))))
(assert (not (= x65 x85)))
(assert (not (= (_ bv5 8) x85)))
(assert (not (= (_ bv5 8) x16)))
(assert (not (= (_ bv5 8) x26)))
(assert (not (= (_ bv5 8) (_ bv9 8))))
(assert (not (= (_ bv5 8) x46)))
(assert (not (= (_ bv5 8) (_ bv8 8))))
(assert (not (= (_ bv5 8) x66)))
(assert (not (= (_ bv5 8) x76)))
(assert (not (= (_ bv5 8) (_ bv2 8))))
(assert (not (= x16 x26)))
(assert (not (= x16 (_ bv9 8))))
(assert (not (= x16 x46)))
(assert (not (= x16 (_ bv8 8))))
(assert (not (= x16 x66)))
(assert (not (= x16 x76)))
(assert (not (= x16 (_ bv2 8))))
(assert (not (= x26 (_ bv9 8))))
(assert (not (= x26 x46)))
(assert (not (= x26 (_ bv8 8))))
(assert (not (= x26 x66)))
(assert (not (= x26 x76)))
(assert (not (= x26 (_ bv2 8))))
(assert (not (= (_ bv9 8) x46)))
(assert (not (= (_ bv9 8) (_ bv8 8))))
(assert (not (= (_ bv9 8) x66)))
(assert (not (= (_ bv9 8) x76)))
(assert (not (= (_ bv9 8) (_ bv2 8))))
(assert (not (= x46 (_ bv8 8))))
(assert (not (= x46 x66)))
(assert (not (= x46 x76)))
(assert (not (= x46 (_ bv2 8))))
(assert (not (= (_ bv8 8) x66)))
(assert (not (= (_ bv8 8) x76)))
(assert (not (= (_ bv8 8) (_ bv2 8))))
(assert (not (= x66 x76)))
(assert (not (= x66 (_ bv2 8))))
(assert (not (= x76 (_ bv2 8))))
(assert (not (= x07 x17)))
(assert (not (= x07 (_ bv7 8))))
(assert (not (= x07 x37)))
(assert (not (= x07 x47)))
(assert (not (= x07 x57)))
(assert (not (= x07 x67)))
(assert (not (= x07 (_ bv3 8))))
(assert (not (= x07 x87)))
(assert (not (= x17 (_ bv7 8))))
(assert (not (= x17 x37)))
(assert (not (= x17 x47)))
(assert (not (= x17 x57)))
(assert (not (= x17 x67)))
(assert (not (= x17 (_ bv3 8))))
(assert (not (= x17 x87)))
(assert (not (= (_ bv7 8) x37)))
(assert (not (= (_ bv7 8) x47)))
(assert (not (= (_ bv7 8) x57)))
(assert (not (= (_ bv7 8) x67)))
(assert (not (= (_ bv7 8) (_ bv3 8))))
(assert (not (= (_ bv7 8) x87)))
(assert (not (= x37 x47)))
(assert (not (= x37 x57)))
(assert (not (= x37 x67)))
(assert (not (= x37 (_ bv3 8))))
(assert (not (= x37 x87)))
(assert (not (= x47 x57)))
(assert (not (= x47 x67)))
(assert (not (= x47 (_ bv3 8))))
(assert (not (= x47 x87)))
(assert (not (= x57 x67)))
(assert (not (= x57 (_ bv3 8))))
(assert (not (= x57 x87)))
(assert (not (= x67 (_ bv3 8))))
(assert (not (= x67 x87)))
(assert (not (= (_ bv3 8) x87)))
(assert (not (= x08 x18)))
(assert (not (= x08 (_ bv3 8))))
(assert (not (= x08 (_ bv5 8))))
(assert (not (= x08 x48)))
(assert (not (= x08 (_ bv2 8))))
(assert (not (= x08 (_ bv1 8))))
(assert (not (= x08 (_ bv9 8))))
(assert (not (= x08 (_ bv6 8))))
(assert (not (= x18 (_ bv3 8))))
(assert (not (= x18 (_ bv5 8))))
(assert (not (= x18 x48)))
(assert (not (= x18 (_ bv2 8))))
(assert (not (= x18 (_ bv1 8))))
(assert (not (= x18 (_ bv9 8))))
(assert (not (= x18 (_ bv6 8))))
(assert (not (= (_ bv3 8) (_ bv5 8))))
(assert (not (= (_ bv3 8) x48)))
(assert (not (= (_ bv3 8) (_ bv2 8))))
(assert (not (= (_ bv3 8) (_ bv1 8))))
(assert (not (= (_ bv3 8) (_ bv9 8))))
(assert (not (= (_ bv3 8) (_ bv6 8))))
(assert (not (= (_ bv5 8) x48)))
(assert (not (= (_ bv5 8) (_ bv2 8))))
(assert (not (= (_ bv5 8) (_ bv1 8))))
(assert (not (= (_ bv5 8) (_ bv9 8))))
(assert (not (= (_ bv5 8) (_ bv6 8))))
(assert (not (= x48 (_ bv2 8))))
(assert (not (= x48 (_ bv1 8))))
(assert (not (= x48 (_ bv9 8))))
(assert (not (= x48 (_ bv6 8))))
(assert (not (= (_ bv2 8) (_ bv1 8))))
(assert (not (= (_ bv2 8) (_ bv9 8))))
(assert (not (= (_ bv2 8) (_ bv6 8))))
(assert (not (= (_ bv1 8) (_ bv9 8))))
(assert (not (= (_ bv1 8) (_ bv6 8))))
(assert (not (= (_ bv9 8) (_ bv6 8))))
(assert (not (= x00 x01)))
(assert (not (= x00 (_ bv4 8))))
(assert (not (= x00 (_ bv5 8))))
(assert (not (= x00 (_ bv2 8))))
(assert (not (= x00 (_ bv6 8))))
(assert (not (= x00 x20)))
(assert (not (= x00 x21)))
(assert (not (= x00 (_ bv1 8))))
(assert (not (= x01 (_ bv4 8))))
(assert (not (= x01 (_ bv5 8))))
(assert (not (= x01 (_ bv2 8))))
(assert (not (= x01 (_ bv6 8))))
(assert (not (= x01 x20)))
(assert (not (= x01 x21)))
(assert (not (= x01 (_ bv1 8))))
(assert (not (= (_ bv4 8) (_ bv5 8))))
(assert (not (= (_ bv4 8) (_ bv2 8))))
(assert (not (= (_ bv4 8) (_ bv6 8))))
(assert (not (= (_ bv4 8) x20)))
(assert (not (= (_ bv4 8) x21)))
(assert (not (= (_ bv4 8) (_ bv1 8))))
(assert (not (= (_ bv5 8) (_ bv2 8))))
(assert (not (= (_ bv5 8) (_ bv6 8))))
(assert (not (= (_ bv5 8) x20)))
(assert (not (= (_ bv5 8) x21)))
(assert (not (= (_ bv5 8) (_ bv1 8))))
(assert (not (= (_ bv2 8) (_ bv6 8))))
(assert (not (= (_ bv2 8) x20)))
(assert (not (= (_ bv2 8) x21)))
(assert (not (= (_ bv2 8) (_ bv1 8))))
(assert (not (= (_ bv6 8) x20)))
(assert (not (= (_ bv6 8) x21)))
(assert (not (= (_ bv6 8) (_ bv1 8))))
(assert (not (= x20 x21)))
(assert (not (= x20 (_ bv1 8))))
(assert (not (= x21 (_ bv1 8))))
(assert (not (= (_ bv1 8) x04)))
(assert (not (= (_ bv1 8) x05)))
(assert (not (= (_ bv1 8) x13)))
(assert (not (= (_ bv1 8) (_ bv8 8))))
(assert (not (= (_ bv1 8) x15)))
(assert (not (= (_ bv1 8) (_ bv2 8))))
(assert (not (= (_ bv1 8) x24)))
(assert (not (= (_ bv1 8) (_ bv4 8))))
(assert (not (= x04 x05)))
(assert (not (= x04 x13)))
(assert (not (= x04 (_ bv8 8))))
(assert (not (= x04 x15)))
(assert (not (= x04 (_ bv2 8))))
(assert (not (= x04 x24)))
(assert (not (= x04 (_ bv4 8))))
(assert (not (= x05 x13)))
(assert (not (= x05 (_ bv8 8))))
(assert (not (= x05 x15)))
(assert (not (= x05 (_ bv2 8))))
(assert (not (= x05 x24)))
(assert (not (= x05 (_ bv4 8))))
(assert (not (= x13 (_ bv8 8))))
(assert (not (= x13 x15)))
(assert (not (= x13 (_ bv2 8))))
(assert (not (= x13 x24)))
(assert (not (= x13 (_ bv4 8))))
(assert (not (= (_ bv8 8) x15)))
(assert (not (= (_ bv8 8) (_ bv2 8))))
(assert (not (= (_ bv8 8) x24)))
(assert (not (= (_ bv8 8) (_ bv4 8))))
(assert (not (= x15 (_ bv2 8))))
(assert (not (= x15 x24)))
(assert (not (= x15 (_ bv4 8))))
(assert (not (= (_ bv2 8) x24)))
(assert (not (= (_ bv2 8) (_ bv4 8))))
(assert (not (= x24 (_ bv4 8))))
(assert (not (= (_ bv5 8) x07)))
(assert (not (= (_ bv5 8) x08)))
(assert (not (= (_ bv5 8) x16)))
(assert (not (= (_ bv5 8) x17)))
(assert (not (= (_ bv5 8) x18)))
(assert (not (= (_ bv5 8) x26)))
(assert (not (= (_ bv5 8) (_ bv7 8))))
(assert (not (= (_ bv5 8) (_ bv3 8))))
(assert (not (= x07 x08)))
(assert (not (= x07 x16)))
(assert (not (= x07 x17)))
(assert (not (= x07 x18)))
(assert (not (= x07 x26)))
(assert (not (= x07 (_ bv7 8))))
(assert (not (= x07 (_ bv3 8))))
(assert (not (= x08 x16)))
(assert (not (= x08 x17)))
(assert (not (= x08 x18)))
(assert (not (= x08 x26)))
(assert (not (= x08 (_ bv7 8))))
(assert (not (= x08 (_ bv3 8))))
(assert (not (= x16 x17)))
(assert (not (= x16 x18)))
(assert (not (= x16 x26)))
(assert (not (= x16 (_ bv7 8))))
(assert (not (= x16 (_ bv3 8))))
(assert (not (= x17 x18)))
(assert (not (= x17 x26)))
(assert (not (= x17 (_ bv7 8))))
(assert (not (= x17 (_ bv3 8))))
(assert (not (= x18 x26)))
(assert (not (= x18 (_ bv7 8))))
(assert (not (= x18 (_ bv3 8))))
(assert (not (= x26 (_ bv7 8))))
(assert (not (= x26 (_ bv3 8))))
(assert (not (= (_ bv7 8) (_ bv3 8))))
(assert (not (= (_ bv2 8) (_ bv1 8))))
(assert (not (= (_ bv2 8) x32)))
(assert (not (= (_ bv2 8) x40)))
(assert (not (= (_ bv2 8) (_ bv4 8))))
(assert (not (= (_ bv2 8) x42)))
(assert (not (= (_ bv2 8) x50)))
(assert (not (= (_ bv2 8) (_ bv5 8))))
(assert (not (= (_ bv2 8) x52)))
(assert (not (= (_ bv1 8) x32)))
(assert (not (= (_ bv1 8) x40)))
(assert (not (= (_ bv1 8) (_ bv4 8))))
(assert (not (= (_ bv1 8) x42)))
(assert (not (= (_ bv1 8) x50)))
(assert (not (= (_ bv1 8) (_ bv5 8))))
(assert (not (= (_ bv1 8) x52)))
(assert (not (= x32 x40)))
(assert (not (= x32 (_ bv4 8))))
(assert (not (= x32 x42)))
(assert (not (= x32 x50)))
(assert (not (= x32 (_ bv5 8))))
(assert (not (= x32 x52)))
(assert (not (= x40 (_ bv4 8))))
(assert (not (= x40 x42)))
(assert (not (= x40 x50)))
(assert (not (= x40 (_ bv5 8))))
(assert (not (= x40 x52)))
(assert (not (= (_ bv4 8) x42)))
(assert (not (= (_ bv4 8) x50)))
(assert (not (= (_ bv4 8) (_ bv5 8))))
(assert (not (= (_ bv4 8) x52)))
(assert (not (= x42 x50)))
(assert (not (= x42 (_ bv5 8))))
(assert (not (= x42 x52)))
(assert (not (= x50 (_ bv5 8))))
(assert (not (= x50 x52)))
(assert (not (= (_ bv5 8) x52)))
(assert (not (= (_ bv4 8) x34)))
(assert (not (= (_ bv4 8) x35)))
(assert (not (= (_ bv4 8) x43)))
(assert (not (= (_ bv4 8) x44)))
(assert (not (= (_ bv4 8) (_ bv8 8))))
(assert (not (= (_ bv4 8) (_ bv9 8))))
(assert (not (= (_ bv4 8) x54)))
(assert (not (= (_ bv4 8) (_ bv6 8))))
(assert (not (= x34 x35)))
(assert (not (= x34 x43)))
(assert (not (= x34 x44)))
(assert (not (= x34 (_ bv8 8))))
(assert (not (= x34 (_ bv9 8))))
(assert (not (= x34 x54)))
(assert (not (= x34 (_ bv6 8))))
(assert (not (= x35 x43)))
(assert (not (= x35 x44)))
(assert (not (= x35 (_ bv8 8))))
(assert (not (= x35 (_ bv9 8))))
(assert (not (= x35 x54)))
(assert (not (= x35 (_ bv6 8))))
(assert (not (= x43 x44)))
(assert (not (= x43 (_ bv8 8))))
(assert (not (= x43 (_ bv9 8))))
(assert (not (= x43 x54)))
(assert (not (= x43 (_ bv6 8))))
(assert (not (= x44 (_ bv8 8))))
(assert (not (= x44 (_ bv9 8))))
(assert (not (= x44 x54)))
(assert (not (= x44 (_ bv6 8))))
(assert (not (= (_ bv8 8) (_ bv9 8))))
(assert (not (= (_ bv8 8) x54)))
(assert (not (= (_ bv8 8) (_ bv6 8))))
(assert (not (= (_ bv9 8) x54)))
(assert (not (= (_ bv9 8) (_ bv6 8))))
(assert (not (= x54 (_ bv6 8))))
(assert (not (= (_ bv9 8) x37)))
(assert (not (= (_ bv9 8) (_ bv5 8))))
(assert (not (= (_ bv9 8) x46)))
(assert (not (= (_ bv9 8) x47)))
(assert (not (= (_ bv9 8) x48)))
(assert (not (= (_ bv9 8) (_ bv8 8))))
(assert (not (= (_ bv9 8) x57)))
(assert (not (= (_ bv9 8) (_ bv2 8))))
(assert (not (= x37 (_ bv5 8))))
(assert (not (= x37 x46)))
(assert (not (= x37 x47)))
(assert (not (= x37 x48)))
(assert (not (= x37 (_ bv8 8))))
(assert (not (= x37 x57)))
(assert (not (= x37 (_ bv2 8))))
(assert (not (= (_ bv5 8) x46)))
(assert (not (= (_ bv5 8) x47)))
(assert (not (= (_ bv5 8) x48)))
(assert (not (= (_ bv5 8) (_ bv8 8))))
(assert (not (= (_ bv5 8) x57)))
(assert (not (= (_ bv5 8) (_ bv2 8))))
(assert (not (= x46 x47)))
(assert (not (= x46 x48)))
(assert (not (= x46 (_ bv8 8))))
(assert (not (= x46 x57)))
(assert (not (= x46 (_ bv2 8))))
(assert (not (= x47 x48)))
(assert (not (= x47 (_ bv8 8))))
(assert (not (= x47 x57)))
(assert (not (= x47 (_ bv2 8))))
(assert (not (= x48 (_ bv8 8))))
(assert (not (= x48 x57)))
(assert (not (= x48 (_ bv2 8))))
(assert (not (= (_ bv8 8) x57)))
(assert (not (= (_ bv8 8) (_ bv2 8))))
(assert (not (= x57 (_ bv2 8))))
(assert (not (= x60 (_ bv8 8))))
(assert (not (= x60 (_ bv3 8))))
(assert (not (= x60 x70)))
(assert (not (= x60 x71)))
(assert (not (= x60 x72)))
(assert (not (= x60 x80)))
(assert (not (= x60 x81)))
(assert (not (= x60 x82)))
(assert (not (= (_ bv8 8) (_ bv3 8))))
(assert (not (= (_ bv8 8) x70)))
(assert (not (= (_ bv8 8) x71)))
(assert (not (= (_ bv8 8) x72)))
(assert (not (= (_ bv8 8) x80)))
(assert (not (= (_ bv8 8) x81)))
(assert (not (= (_ bv8 8) x82)))
(assert (not (= (_ bv3 8) x70)))
(assert (not (= (_ bv3 8) x71)))
(assert (not (= (_ bv3 8) x72)))
(assert (not (= (_ bv3 8) x80)))
(assert (not (= (_ bv3 8) x81)))
(assert (not (= (_ bv3 8) x82)))
(assert (not (= x70 x71)))
(assert (not (= x70 x72)))
(assert (not (= x70 x80)))
(assert (not (= x70 x81)))
(assert (not (= x70 x82)))
(assert (not (= x71 x72)))
(assert (not (= x71 x80)))
(assert (not (= x71 x81)))
(assert (not (= x71 x82)))
(assert (not (= x72 x80)))
(assert (not (= x72 x81)))
(assert (not (= x72 x82)))
(assert (not (= x80 x81)))
(assert (not (= x80 x82)))
(assert (not (= x81 x82)))
(assert (not (= x63 x64)))
(assert (not (= x63 x65)))
(assert (not (= x63 x73)))
(assert (not (= x63 (_ bv7 8))))
(assert (not (= x63 (_ bv5 8))))
(assert (not (= x63 x83)))
(assert (not (= x63 (_ bv9 8))))
(assert (not (= x63 x85)))
(assert (not (= x64 x65)))
(assert (not (= x64 x73)))
(assert (not (= x64 (_ bv7 8))))
(assert (not (= x64 (_ bv5 8))))
(assert (not (= x64 x83)))
(assert (not (= x64 (_ bv9 8))))
(assert (not (= x64 x85)))
(assert (not (= x65 x73)))
(assert (not (= x65 (_ bv7 8))))
(assert (not (= x65 (_ bv5 8))))
(assert (not (= x65 x83)))
(assert (not (= x65 (_ bv9 8))))
(assert (not (= x65 x85)))
(assert (not (= x73 (_ bv7 8))))
(assert (not (= x73 (_ bv5 8))))
(assert (not (= x73 x83)))
(assert (not (= x73 (_ bv9 8))))
(assert (not (= x73 x85)))
(assert (not (= (_ bv7 8) (_ bv5 8))))
(assert (not (= (_ bv7 8) x83)))
(assert (not (= (_ bv7 8) (_ bv9 8))))
(assert (not (= (_ bv7 8) x85)))
(assert (not (= (_ bv5 8) x83)))
(assert (not (= (_ bv5 8) (_ bv9 8))))
(assert (not (= (_ bv5 8) x85)))
(assert (not (= x83 (_ bv9 8))))
(assert (not (= x83 x85)))
(assert (not (= (_ bv9 8) x85)))
(assert (not (= x66 x67)))
(assert (not (= x66 (_ bv1 8))))
(assert (not (= x66 x76)))
(assert (not (= x66 (_ bv3 8))))
(assert (not (= x66 (_ bv9 8))))
(assert (not (= x66 (_ bv2 8))))
(assert (not (= x66 x87)))
(assert (not (= x66 (_ bv6 8))))
(assert (not (= x67 (_ bv1 8))))
(assert (not (= x67 x76)))
(assert (not (= x67 (_ bv3 8))))
(assert (not (= x67 (_ bv9 8))))
(assert (not (= x67 (_ bv2 8))))
(assert (not (= x67 x87)))
(assert (not (= x67 (_ bv6 8))))
(assert (not (= (_ bv1 8) x76)))
(assert (not (= (_ bv1 8) (_ bv3 8))))
(assert (not (= (_ bv1 8) (_ bv9 8))))
(assert (not (= (_ bv1 8) (_ bv2 8))))
(assert (not (= (_ bv1 8) x87)))
(assert (not (= (_ bv1 8) (_ bv6 8))))
(assert (not (= x76 (_ bv3 8))))
(assert (not (= x76 (_ bv9 8))))
(assert (not (= x76 (_ bv2 8))))
(assert (not (= x76 x87)))
(assert (not (= x76 (_ bv6 8))))
(assert (not (= (_ bv3 8) (_ bv9 8))))
(assert (not (= (_ bv3 8) (_ bv2 8))))
(assert (not (= (_ bv3 8) x87)))
(assert (not (= (_ bv3 8) (_ bv6 8))))
(assert (not (= (_ bv9 8) (_ bv2 8))))
(assert (not (= (_ bv9 8) x87)))
(assert (not (= (_ bv9 8) (_ bv6 8))))
(assert (not (= (_ bv2 8) x87)))
(assert (not (= (_ bv2 8) (_ bv6 8))))
(assert (not (= x87 (_ bv6 8))))
(check-sat)
(exit)
